(set-logic QF_LRA)
(declare-fun T1 () Real )
(declare-fun T2 () Real )
(declare-fun T3 () Real )
(declare-fun T4 () Real )
(declare-fun T5 () Real )
(declare-fun T6 () Real )
(declare-fun Z () Real )
(assert ( and 
(or ( <= ( + T1 79 ) T2 ) ( <= ( + T2 40 ) T1 ) )
(or ( <= ( + T1 89 )  ( + T2 40 ) ) ( <= ( + T2 109 )( + T1 79 ) ) )
(or ( <= ( + T1 95 )  ( + T2 109 ) ) ( <= ( + T2 152 )( + T1 89 ) ) )
(or ( <= ( + T1 146 )  ( + T2 152 ) ) ( <= ( + T2 168 )( + T1 95 ) ) )
(or ( <= ( + T1 79 ) T3 ) ( <= ( + T3 19 ) T1 ) )
(or ( <= ( + T1 89 )  ( + T3 19 ) ) ( <= ( + T3 61 )( + T1 79 ) ) )
(or ( <= ( + T1 95 )  ( + T3 61 ) ) ( <= ( + T3 78 )( + T1 89 ) ) )
(or ( <= ( + T1 146 )  ( + T3 78 ) ) ( <= ( + T3 143 )( + T1 95 ) ) )
(or ( <= ( + T1 79 ) T4 ) ( <= ( + T4 11 ) T1 ) )
(or ( <= ( + T1 89 )  ( + T4 11 ) ) ( <= ( + T4 60 )( + T1 79 ) ) )
(or ( <= ( + T1 95 )  ( + T4 60 ) ) ( <= ( + T4 117 )( + T1 89 ) ) )
(or ( <= ( + T1 146 )  ( + T4 117 ) ) ( <= ( + T4 206 )( + T1 95 ) ) )
(or ( <= ( + T1 79 ) T5 ) ( <= ( + T5 7 ) T1 ) )
(or ( <= ( + T1 89 )  ( + T5 7 ) ) ( <= ( + T5 61 )( + T1 79 ) ) )
(or ( <= ( + T1 95 )  ( + T5 61 ) ) ( <= ( + T5 140 )( + T1 89 ) ) )
(or ( <= ( + T1 146 )  ( + T5 140 ) ) ( <= ( + T5 187 )( + T1 95 ) ) )
(or ( <= ( + T1 79 ) T6 ) ( <= ( + T6 54 ) T1 ) )
(or ( <= ( + T1 89 )  ( + T6 54 ) ) ( <= ( + T6 120 )( + T1 79 ) ) )
(or ( <= ( + T1 95 )  ( + T6 120 ) ) ( <= ( + T6 132 )( + T1 89 ) ) )
(or ( <= ( + T1 146 )  ( + T6 132 ) ) ( <= ( + T6 169 )( + T1 95 ) ) )
(or ( <= ( + T2 40 ) T3 ) ( <= ( + T3 19 ) T2 ) )
(or ( <= ( + T2 109 )  ( + T3 19 ) ) ( <= ( + T3 61 )( + T2 40 ) ) )
(or ( <= ( + T2 152 )  ( + T3 61 ) ) ( <= ( + T3 78 )( + T2 109 ) ) )
(or ( <= ( + T2 168 )  ( + T3 78 ) ) ( <= ( + T3 143 )( + T2 152 ) ) )
(or ( <= ( + T2 40 ) T4 ) ( <= ( + T4 11 ) T2 ) )
(or ( <= ( + T2 109 )  ( + T4 11 ) ) ( <= ( + T4 60 )( + T2 40 ) ) )
(or ( <= ( + T2 152 )  ( + T4 60 ) ) ( <= ( + T4 117 )( + T2 109 ) ) )
(or ( <= ( + T2 168 )  ( + T4 117 ) ) ( <= ( + T4 206 )( + T2 152 ) ) )
(or ( <= ( + T2 40 ) T5 ) ( <= ( + T5 7 ) T2 ) )
(or ( <= ( + T2 109 )  ( + T5 7 ) ) ( <= ( + T5 61 )( + T2 40 ) ) )
(or ( <= ( + T2 152 )  ( + T5 61 ) ) ( <= ( + T5 140 )( + T2 109 ) ) )
(or ( <= ( + T2 168 )  ( + T5 140 ) ) ( <= ( + T5 187 )( + T2 152 ) ) )
(or ( <= ( + T2 40 ) T6 ) ( <= ( + T6 54 ) T2 ) )
(or ( <= ( + T2 109 )  ( + T6 54 ) ) ( <= ( + T6 120 )( + T2 40 ) ) )
(or ( <= ( + T2 152 )  ( + T6 120 ) ) ( <= ( + T6 132 )( + T2 109 ) ) )
(or ( <= ( + T2 168 )  ( + T6 132 ) ) ( <= ( + T6 169 )( + T2 152 ) ) )
(or ( <= ( + T3 19 ) T4 ) ( <= ( + T4 11 ) T3 ) )
(or ( <= ( + T3 61 )  ( + T4 11 ) ) ( <= ( + T4 60 )( + T3 19 ) ) )
(or ( <= ( + T3 78 )  ( + T4 60 ) ) ( <= ( + T4 117 )( + T3 61 ) ) )
(or ( <= ( + T3 143 )  ( + T4 117 ) ) ( <= ( + T4 206 )( + T3 78 ) ) )
(or ( <= ( + T3 19 ) T5 ) ( <= ( + T5 7 ) T3 ) )
(or ( <= ( + T3 61 )  ( + T5 7 ) ) ( <= ( + T5 61 )( + T3 19 ) ) )
(or ( <= ( + T3 78 )  ( + T5 61 ) ) ( <= ( + T5 140 )( + T3 61 ) ) )
(or ( <= ( + T3 143 )  ( + T5 140 ) ) ( <= ( + T5 187 )( + T3 78 ) ) )
(or ( <= ( + T3 19 ) T6 ) ( <= ( + T6 54 ) T3 ) )
(or ( <= ( + T3 61 )  ( + T6 54 ) ) ( <= ( + T6 120 )( + T3 19 ) ) )
(or ( <= ( + T3 78 )  ( + T6 120 ) ) ( <= ( + T6 132 )( + T3 61 ) ) )
(or ( <= ( + T3 143 )  ( + T6 132 ) ) ( <= ( + T6 169 )( + T3 78 ) ) )
(or ( <= ( + T4 11 ) T5 ) ( <= ( + T5 7 ) T4 ) )
(or ( <= ( + T4 60 )  ( + T5 7 ) ) ( <= ( + T5 61 )( + T4 11 ) ) )
(or ( <= ( + T4 117 )  ( + T5 61 ) ) ( <= ( + T5 140 )( + T4 60 ) ) )
(or ( <= ( + T4 206 )  ( + T5 140 ) ) ( <= ( + T5 187 )( + T4 117 ) ) )
(or ( <= ( + T4 11 ) T6 ) ( <= ( + T6 54 ) T4 ) )
(or ( <= ( + T4 60 )  ( + T6 54 ) ) ( <= ( + T6 120 )( + T4 11 ) ) )
(or ( <= ( + T4 117 )  ( + T6 120 ) ) ( <= ( + T6 132 )( + T4 60 ) ) )
(or ( <= ( + T4 206 )  ( + T6 132 ) ) ( <= ( + T6 169 )( + T4 117 ) ) )
(or ( <= ( + T5 7 ) T6 ) ( <= ( + T6 54 ) T5 ) )
(or ( <= ( + T5 61 )  ( + T6 54 ) ) ( <= ( + T6 120 )( + T5 7 ) ) )
(or ( <= ( + T5 140 )  ( + T6 120 ) ) ( <= ( + T6 132 )( + T5 61 ) ) )
(or ( <= ( + T5 187 )  ( + T6 132 ) ) ( <= ( + T6 169 )( + T5 140 ) ) )
( <= ( + T1 146 ) Z)
( <= ( + T2 168 ) Z)
( <= ( + T3 143 ) Z)
( <= ( + T4 206 ) Z)
( <= ( + T5 187 ) Z)
( <= ( + T6 169 ) Z)
( >= T1 0 )
( >= T2 0 )
( >= T3 0 )
( >= T4 0 )
( >= T5 0 )
( >= T6 0 )
) )
(minimize Z)
(check-sat)